NAME : st68_TL
TYPE : TSP
DIMENSION : 18
EDGE_WEIGHT_TYPE : EUC_2D
NODE_COORD_SECTION
2 80 39
3 69 23
4 72 42
6 58 43
7 81 34
8 79 17
14 64 8
18 68 40
19 92 34
20 62 1
26 87 18
28 77 13
30 55 3
32 73 28
41 54 38
42 63 36
49 90 9
55 98 7
EOF
